30
7
5
1
33 124
27 94
26 42
109 40
116 76
112 119
33 124
27 94
26 42
109 40
116 76
112 119
125 121
122 125
120 128
119 131
119 133
22 121
23 124
27 130
28 135
26 142
21 92
16 94
32 93
38 91
36 95
18 50
26 45
16 38
20 42
25 28
102 31
102 33
102 39
114 39
122 39
112 81
114 81
118 81
123 80
126 72
EOF